
;this file is automatically generated: Mon Feb 10 17:01:40 CST 2020

;declarations generated

(declare-fun oclExcludes ( Int Int) Bool)
(declare-fun type_03cfc728_948d_4c5c_8fdd_7200f0f3a42b_Class2 ( Int) Bool)
(declare-fun Cardinality ( Int) Int)
(declare-fun oclSelect ( Int Bool) Int)
(declare-fun type_03cfc728_948d_4c5c_8fdd_7200f0f3a42b_Class28 ( Int) Bool)
(declare-fun type_03cfc728_948d_4c5c_8fdd_7200f0f3a42b_Class29 ( Int) Bool)
(declare-fun obj_9ebc5c59_95db_4b4a_83be_3582086bb331 ( Int) Int)
(declare-fun Enum0 ( Int) Int)
(declare-fun Enum1 ( Int) Int)
(declare-fun Enum2 ( Int) Int)
(declare-fun type_03cfc728_948d_4c5c_8fdd_7200f0f3a42b_Class56 ( Int) Bool)
(declare-fun container_ ( Int) Int)
(declare-fun oclIncludes ( Int Int) Bool)
(declare-fun class28_Class28BoolAttr1 ( Int) Bool)
(declare-fun ObjAt ( Int Int) Int)

;formula(s) generated
(assert (! (forall ((v Int)) (=> (and (and (and ( type_03cfc728_948d_4c5c_8fdd_7200f0f3a42b_Class28 v )  ( type_03cfc728_948d_4c5c_8fdd_7200f0f3a42b_Class56 v ) ) ( type_03cfc728_948d_4c5c_8fdd_7200f0f3a42b_Class29 v ) ) ( type_03cfc728_948d_4c5c_8fdd_7200f0f3a42b_Class2 v ) ) (not ( class28_Class28BoolAttr1 ( obj_9ebc5c59_95db_4b4a_83be_3582086bb331 v )  )  ))):named l0))
(assert (exists ((o Int)) (and (and (and ( type_03cfc728_948d_4c5c_8fdd_7200f0f3a42b_Class28 ( obj_9ebc5c59_95db_4b4a_83be_3582086bb331 o )  )  ( type_03cfc728_948d_4c5c_8fdd_7200f0f3a42b_Class56 ( obj_9ebc5c59_95db_4b4a_83be_3582086bb331 o )  ) ) ( type_03cfc728_948d_4c5c_8fdd_7200f0f3a42b_Class29 ( obj_9ebc5c59_95db_4b4a_83be_3582086bb331 o )  ) ) ( type_03cfc728_948d_4c5c_8fdd_7200f0f3a42b_Class2 ( obj_9ebc5c59_95db_4b4a_83be_3582086bb331 o )  ) )))

 ;end of formula 